% Generated FlatZinc statistics:
%%%mzn-stat: paths=0
%%%mzn-stat: flatBoolVars=981
%%%mzn-stat: flatIntVars=159
%%%mzn-stat: flatBoolConstraints=369
%%%mzn-stat: flatIntConstraints=1122
%%%mzn-stat: evaluatedReifiedConstraints=982
%%%mzn-stat: eliminatedLinearConstraints=1
%%%mzn-stat: method="minimize"
%%%mzn-stat: flatTime=0.0932302
%%%mzn-stat-end
WARNING: the --time-out flag has recently been changed.The time-out is now provided in milliseconds instead of seconds
